(declare-const a Real)
(declare-const b Real)
(declare-const c Real)
(declare-const d Real)
(assert (= (* a b c d) 1))
(assert (>= a 0))
(assert (>= b 0))
(assert (>= c 0))
(assert (>= d 0))
(assert (not (<= (+ a b c d (* (pow (* d (pow b (pow a 4)) (pow b (* 4 c)) (pow c 4)) (pow (+ 1 c (pow a 4)) -1)) (+ -1 (* -1 c) (* -1 (pow a 4)))) (* -1 a (pow d 4))) 0)))
(check-sat)
(get-model)
(exit)